20
9	143	140	58	15
8	57	382	27	43
23	236	301	47	70
20	317	230	69	15
45	255	348	61	63
2	324	189	8	34
38	191	80	51	91
37	29	297	41	61
36	144	372	21	92
41	418	76	40	26
17	75	94	78	2
34	242	103	5	82
28	132	357	75	2
22	420	366	13	50
13	157	275	71	68
16	69	353	67	74
31	256	392	77	19
9	187	210	43	64
40	65	252	2	75
1	398	336	49	55
